c "129981.clq"
p edge 150 584
e 1 5
e 1 6
e 1 7
e 1 8
e 1 10
e 1 11
e 1 14
e 1 21
e 1 23
e 1 25
e 1 29
e 1 32
e 1 45
e 1 53
e 1 63
e 1 65
e 1 89
e 1 92
e 1 104
e 1 133
e 1 138
e 2 5
e 2 6
e 2 9
e 2 12
e 2 13
e 2 15
e 2 46
e 2 78
e 2 85
e 2 87
e 2 102
e 2 125
e 2 142
e 3 5
e 3 6
e 3 11
e 3 15
e 3 16
e 3 19
e 3 31
e 3 35
e 3 39
e 3 42
e 3 43
e 3 44
e 3 50
e 3 53
e 3 65
e 3 67
e 3 78
e 3 85
e 3 108
e 3 109
e 3 113
e 3 122
e 3 125
e 3 133
e 3 146
e 4 5
e 4 7
e 4 9
e 4 12
e 4 17
e 4 18
e 4 24
e 4 57
e 4 58
e 4 72
e 4 75
e 4 91
e 4 126
e 4 139
e 4 146
e 5 6
e 5 7
e 5 8
e 5 9
e 5 12
e 5 17
e 5 29
e 5 30
e 5 36
e 5 42
e 5 43
e 5 45
e 5 46
e 5 47
e 5 48
e 5 55
e 5 87
e 5 99
e 5 109
e 5 112
e 5 121
e 5 137
e 5 143
e 5 148
e 5 149
e 6 7
e 6 8
e 6 10
e 6 11
e 6 12
e 6 16
e 6 19
e 6 20
e 6 22
e 6 23
e 6 34
e 6 35
e 6 38
e 6 41
e 6 49
e 6 61
e 6 64
e 6 70
e 6 72
e 6 100
e 6 103
e 6 105
e 6 110
e 6 111
e 6 129
e 6 130
e 6 135
e 6 150
e 7 8
e 7 14
e 7 17
e 7 25
e 7 26
e 7 52
e 7 69
e 7 78
e 7 95
e 7 101
e 7 124
e 7 135
e 7 137
e 7 138
e 8 9
e 8 10
e 8 13
e 8 14
e 8 15
e 8 31
e 8 37
e 8 40
e 8 54
e 8 62
e 8 73
e 8 76
e 8 90
e 8 91
e 8 92
e 8 120
e 8 130
e 8 144
e 8 146
e 9 10
e 9 11
e 9 13
e 9 15
e 9 20
e 9 23
e 9 32
e 9 39
e 9 47
e 9 48
e 9 53
e 9 54
e 9 56
e 9 57
e 9 59
e 9 63
e 9 67
e 9 73
e 9 75
e 9 77
e 9 81
e 9 98
e 9 102
e 9 108
e 9 115
e 9 119
e 9 124
e 9 131
e 9 136
e 10 18
e 10 19
e 10 21
e 10 22
e 10 25
e 10 26
e 10 27
e 10 29
e 10 36
e 10 37
e 10 38
e 10 45
e 10 47
e 10 48
e 10 51
e 10 74
e 10 78
e 10 80
e 10 82
e 10 84
e 10 89
e 10 107
e 10 117
e 10 124
e 10 144
e 11 14
e 11 17
e 11 22
e 11 26
e 11 30
e 11 43
e 11 51
e 11 68
e 11 70
e 11 79
e 11 80
e 11 82
e 11 85
e 11 86
e 11 93
e 11 99
e 11 116
e 11 118
e 11 123
e 11 131
e 12 13
e 12 16
e 12 18
e 12 19
e 12 20
e 12 24
e 12 28
e 12 31
e 12 34
e 12 36
e 12 40
e 12 50
e 12 54
e 12 57
e 12 59
e 12 61
e 12 69
e 12 74
e 12 76
e 12 81
e 12 90
e 12 99
e 12 105
e 12 107
e 12 108
e 12 114
e 12 115
e 12 127
e 13 30
e 13 37
e 13 39
e 13 48
e 13 53
e 13 55
e 13 56
e 13 65
e 13 68
e 13 71
e 13 82
e 13 88
e 13 107
e 13 110
e 13 113
e 13 119
e 13 121
e 13 124
e 13 125
e 13 129
e 13 139
e 13 142
e 13 147
e 14 21
e 14 25
e 14 27
e 14 28
e 14 33
e 14 38
e 14 70
e 14 106
e 14 120
e 15 16
e 15 24
e 15 27
e 15 40
e 15 70
e 15 77
e 15 86
e 15 93
e 16 18
e 16 32
e 16 62
e 16 64
e 16 66
e 16 88
e 16 96
e 17 24
e 17 26
e 17 29
e 17 49
e 17 67
e 17 79
e 17 90
e 17 116
e 17 145
e 18 33
e 18 68
e 18 81
e 18 82
e 18 88
e 18 116
e 18 126
e 18 130
e 18 134
e 19 20
e 19 21
e 19 22
e 19 28
e 19 33
e 19 35
e 19 42
e 19 44
e 19 45
e 19 49
e 19 50
e 19 73
e 19 86
e 19 147
e 20 28
e 20 36
e 20 49
e 20 59
e 20 63
e 20 87
e 20 110
e 21 23
e 21 35
e 21 46
e 21 52
e 21 57
e 21 58
e 21 62
e 21 66
e 21 75
e 21 94
e 21 95
e 21 100
e 21 106
e 21 107
e 21 109
e 21 135
e 21 136
e 21 141
e 22 56
e 22 66
e 22 76
e 22 144
e 23 30
e 23 34
e 23 54
e 23 72
e 24 38
e 24 39
e 24 97
e 24 112
e 24 120
e 24 131
e 24 148
e 24 150
e 25 32
e 25 94
e 25 109
e 25 130
e 25 134
e 26 27
e 26 34
e 26 42
e 26 64
e 26 102
e 26 121
e 26 148
e 27 91
e 28 31
e 28 33
e 28 41
e 28 59
e 28 89
e 28 105
e 28 112
e 28 128
e 28 149
e 29 47
e 29 55
e 29 62
e 29 134
e 29 139
e 29 148
e 30 132
e 30 136
e 31 74
e 31 79
e 31 97
e 31 144
e 32 37
e 32 41
e 32 43
e 33 55
e 33 85
e 33 92
e 34 65
e 34 76
e 34 86
e 34 94
e 34 103
e 35 44
e 35 46
e 35 50
e 35 52
e 35 63
e 35 80
e 35 117
e 35 123
e 35 126
e 35 134
e 36 40
e 36 51
e 36 58
e 36 61
e 36 64
e 36 66
e 36 93
e 36 99
e 36 103
e 37 44
e 37 98
e 38 56
e 38 71
e 38 104
e 39 131
e 39 132
e 40 41
e 40 52
e 41 92
e 41 120
e 41 141
e 42 51
e 42 58
e 42 127
e 43 98
e 43 101
e 43 123
e 44 71
e 44 74
e 44 83
e 44 127
e 45 94
e 45 129
e 46 61
e 46 97
e 47 89
e 47 103
e 47 115
e 48 104
e 48 110
e 49 73
e 49 96
e 49 106
e 49 138
e 50 129
e 51 60
e 52 96
e 52 140
e 52 141
e 53 60
e 53 100
e 53 105
e 55 71
e 55 72
e 56 90
e 56 101
e 56 123
e 56 126
e 56 143
e 57 60
e 57 128
e 57 142
e 58 60
e 58 122
e 58 141
e 59 97
e 60 101
e 60 128
e 61 69
e 61 84
e 61 96
e 61 114
e 61 145
e 62 69
e 62 75
e 62 91
e 63 67
e 63 68
e 63 83
e 63 117
e 63 140
e 63 150
e 64 118
e 64 128
e 64 147
e 65 79
e 65 104
e 65 112
e 65 121
e 66 83
e 66 102
e 66 136
e 67 81
e 68 77
e 68 113
e 68 137
e 69 83
e 71 84
e 71 95
e 71 117
e 71 133
e 71 143
e 73 77
e 73 93
e 73 114
e 74 80
e 74 127
e 76 87
e 76 115
e 76 139
e 77 108
e 77 111
e 77 149
e 78 116
e 80 84
e 80 88
e 83 100
e 83 125
e 83 133
e 83 147
e 84 106
e 86 114
e 88 135
e 90 95
e 90 111
e 93 119
e 94 140
e 95 111
e 96 98
e 96 118
e 103 113
e 104 142
e 105 122
e 107 140
e 108 122
e 112 118
e 112 137
e 112 149
e 113 145
e 114 119
e 120 143
e 120 145
e 122 132
e 124 132
e 131 138
e 141 150
e 145 146
